cryptominisat5/command-line/expected-output.txt
c Outputting solution to console
c CryptoMiniSat version 5.6.8
c CMS Copyright Mate Soos (soos.mate@gmail.com)
c CMS SHA revision 
c CMS is MIT licensed
c CMS compilation env CMAKE_CXX_COMPILER = /usr/bin/c++ | CMAKE_CXX_FLAGS = -march=x86-64 -mtune=generic -O2 -pipe -fno-plt -mtune=native -Wall -Wextra -Wunused -Wsign-compare -fno-omit-frame-pointer -Wtype-limits -Wuninitialized -Wno-deprecated -Wstrict-aliasing -Wpointer-arith -Wpointer-arith -Wformat-nonliteral -Winit-self -Wparentheses -Wunreachable-code -ggdb3 -Wlogical-op -Wrestrict -Wnull-dereference -Wdouble-promotion -Wshadow -Wformat=2 -Wextra-semi -pedantic -Wno-class-memaccess | COMPILE_DEFINES =  -DBOOST_TEST_DYN_LINK -DUSE_ZLIB | STATICCOMPILE = OFF | ONLY_SIMPLE = OFF | Boost_FOUND = TRUE | STATS = OFF | SQLITE3_FOUND =  | ZLIB_FOUND = TRUE | VALGRIND_FOUND = FALSE | ENABLE_TESTING = OFF | M4RI_FOUND =  | NOM4RI = on | SLOW_DEBUG = OFF | ENABLE_ASSERTIONS = ON | PYTHON_EXECUTABLE = /usr/bin/python3 | PYTHON_LIBRARY = /usr/lib/libpython3.8.so | PYTHON_INCLUDE_DIRS = /usr/include/python3.8 | MY_TARGETS =  | LARGEMEM = OFF | LIMITMEM = OFF | compilation date time = Jan 28 2020 04:03:14
c CMS compiled with gcc version 9.2.0
c Executed with command line: cryptominisat5 test.dimacs
c Reading file 'test.dimacs'
c -- header says num vars:              3
c -- header says num clauses:           4
c -- clauses added: 4
c -- xor clauses added: 0
c -- vars added 3
c Parsing time: 0.00 s
c   type VSIDS  rest  conf freevar  IrrL  IrrB l/longC  l/allC RedL0 RedL1 RedL2  RedB l/longC  l/allC
c ------- FINAL TOTAL SEARCH STATS ---------
c UIP search time          : 0.00        (0.00      % time)
c restarts                 : 1           (1.00      confls per restart)
c blocked restarts         : 0           (0.00      per normal restart)
c time                     : 0.00        
c decisions                : 2           (0.00      % random)
c propagations             : 4           
c decisions/conflicts      : 2.00        
c conflicts                : 1           (0.00      / sec)
c conf lits non-minim      : 2           (2.00      lit/confl)
c conf lits final          : 2.00        
c cache hit re-learnt cl   : 0           (0.00      % of confl)
c red which0               : 0           (0.00      % of confl)
c props/decision           : 0.00        
c props/conflict           : 0.00        
c 0-depth assigns          : 0           (0.00      % vars)
c 0-depth assigns by CNF   : 0           (0.00      % vars)
c reduceDB time            : 0.00        (0.00      % time)
c OccSimplifier time       : 0.00        (0.00      % time)
c [occur] 0.00 is overhead
c [occur] link-in T: 0.00 cleanup T: 0.00
c [occ-substr] long subBySub: 0 subByStr: 0 lits-rem-str: 0 T: 0.00
c SCC time                 : 0.00        (0.00      % time)
c [scc] new: 0 BP 0M  T: 0.00
c vrep replace time        : 0.00        (0.00      % time)
c vrep tree roots          : 0           
c vrep trees' crown        : 0           (0.00      leafs/tree)
c distill time             : 0.00        (0.00      % time)
c strength cache-irred time: 0.00        (0.00      % time)
c strength cache-red time  : 0.00        (0.00      % time)
c Conflicts in UIP         : 1           (265.39    confl/time_this_thread)
c Mem used                 : 5.76        MB
c Total time (this thread) : 0.00        
s SATISFIABLE
v -1 2 3 0
